!PBE RI pcSseg-2 def2/J NMR
! CPCM(Water)

*xyzfile 0 1 Acetone.xyz

