! RHF def2-TZVP TightSCF Conv

%casscf
  nel 2
  norb 2
  switchstep nr
end

%paras R= 4.0,0.5,35 end

* xyz 0 1
H 0 0 0
F 0 0 {R}
*