! PBEh-3c Opt
! CPCM(Water)

*xyzfile 0 1 acetone.xyz

