!PBE RI pcSseg-2 def2/J NMR

*xyzfile 1 1 OPT_Ar-4.xyz

