! UHF def2-TZVP TightSCF


* xyz 0 2
H 0 0 0
*