! UHF def2-TZVP TightSCF

%scf BrokenSym 1,1 end

* xyz 0 2
H 0 0 0
*