! UHF def2-TZVP TightSCF

* xyz 0 2
F 0 0 0
*