!PBE RI pcSseg-2 def2/J NMR

*xyzfile 0 1 OPT_E.xyz

